#49_4_2_1_random# 49 4 234 1000000000
4 4 4 4 4 4 4 4 4 4 4 4 4 4 4 4 4 4 4 4 4 4 4 4 4 4 4 4 4 4 4 4 4 4 4 4 4 4 4 4 4 4 4 4 4 4 4 4 4 
2 0 34 0 16
0 0 50
0 1 11
0 2 68
0 3 53
1 0 58
1 1 58
1 2 49
1 3 30
2 0 22
2 1 15
2 2 78
2 3 25
3 0 37
3 1 10
3 2 69
3 3 16
2 0 35 0 16
0 0 38
0 1 98
0 2 41
0 3 29
1 0 68
1 1 91
1 2 8
1 3 14
2 0 55
2 1 76
2 2 97
2 3 69
3 0 90
3 1 31
3 2 40
3 3 98
2 0 38 0 16
0 0 95
0 1 49
0 2 3
0 3 80
1 0 1
1 1 51
1 2 97
1 3 66
2 0 18
2 1 78
2 2 66
2 3 48
3 0 85
3 1 3
3 2 52
3 3 78
2 0 6 0 16
0 0 45
0 1 24
0 2 65
0 3 49
1 0 76
1 1 19
1 2 45
1 3 25
2 0 18
2 1 33
2 2 74
2 3 35
3 0 76
3 1 66
3 2 67
3 3 36
2 0 7 0 16
0 0 18
0 1 35
0 2 82
0 3 68
1 0 7
1 1 68
1 2 75
1 3 43
2 0 80
2 1 19
2 2 8
2 3 32
3 0 18
3 1 79
3 2 25
3 3 34
2 0 8 0 16
0 0 11
0 1 83
0 2 70
0 3 79
1 0 29
1 1 6
1 2 55
1 3 20
2 0 18
2 1 63
2 2 67
2 3 65
3 0 57
3 1 4
3 2 33
3 3 22
2 0 9 0 16
0 0 49
0 1 89
0 2 37
0 3 9
1 0 33
1 1 82
1 2 19
1 3 25
2 0 82
2 1 28
2 2 75
2 3 60
3 0 24
3 1 54
3 2 54
3 3 26
2 0 11 0 16
0 0 27
0 1 73
0 2 15
0 3 70
1 0 98
1 1 39
1 2 93
1 3 78
2 0 63
2 1 51
2 2 14
2 3 95
3 0 40
3 1 41
3 2 15
3 3 70
2 0 12 0 16
0 0 41
0 1 80
0 2 72
0 3 63
1 0 17
1 1 80
1 2 34
1 3 72
2 0 20
2 1 49
2 2 55
2 3 84
3 0 72
3 1 53
3 2 71
3 3 94
2 0 17 0 16
0 0 28
0 1 51
0 2 30
0 3 83
1 0 78
1 1 4
1 2 88
1 3 91
2 0 73
2 1 40
2 2 61
2 3 40
3 0 86
3 1 9
3 2 48
3 3 95
2 0 18 0 16
0 0 15
0 1 42
0 2 76
0 3 82
1 0 51
1 1 14
1 2 40
1 3 89
2 0 62
2 1 100
2 2 88
2 3 7
3 0 9
3 1 50
3 2 72
3 3 8
2 0 43 0 16
0 0 64
0 1 93
0 2 47
0 3 38
1 0 69
1 1 34
1 2 8
1 3 1
2 0 19
2 1 77
2 2 45
2 3 42
3 0 22
3 1 94
3 2 64
3 3 81
2 0 40 0 16
0 0 85
0 1 9
0 2 92
0 3 38
1 0 15
1 1 21
1 2 99
1 3 68
2 0 72
2 1 78
2 2 78
2 3 44
3 0 32
3 1 6
3 2 12
3 3 51
2 1 2 0 16
0 0 48
0 1 99
0 2 32
0 3 28
1 0 54
1 1 90
1 2 52
1 3 65
2 0 97
2 1 25
2 2 16
2 3 34
3 0 7
3 1 93
3 2 67
3 3 52
2 1 3 0 16
0 0 4
0 1 51
0 2 38
0 3 70
1 0 83
1 1 89
1 2 9
1 3 52
2 0 33
2 1 71
2 2 90
2 3 76
3 0 72
3 1 60
3 2 58
3 3 78
2 1 36 0 16
0 0 38
0 1 9
0 2 41
0 3 94
1 0 31
1 1 97
1 2 99
1 3 23
2 0 94
2 1 1
2 2 96
2 3 6
3 0 70
3 1 28
3 2 99
3 3 27
2 1 37 0 16
0 0 19
0 1 58
0 2 60
0 3 45
1 0 99
1 1 22
1 2 68
1 3 34
2 0 67
2 1 80
2 2 23
2 3 10
3 0 38
3 1 65
3 2 33
3 3 62
2 1 6 0 16
0 0 13
0 1 84
0 2 37
0 3 99
1 0 2
1 1 58
1 2 27
1 3 53
2 0 66
2 1 96
2 2 40
2 3 22
3 0 59
3 1 58
3 2 19
3 3 50
2 1 39 0 16
0 0 4
0 1 25
0 2 27
0 3 34
1 0 81
1 1 49
1 2 29
1 3 90
2 0 81
2 1 62
2 2 25
2 3 98
3 0 7
3 1 34
3 2 21
3 3 3
2 1 11 0 16
0 0 29
0 1 31
0 2 41
0 3 72
1 0 4
1 1 85
1 2 38
1 3 82
2 0 95
2 1 34
2 2 3
2 3 37
3 0 20
3 1 63
3 2 4
3 3 51
2 1 45 0 16
0 0 40
0 1 16
0 2 43
0 3 27
1 0 19
1 1 46
1 2 82
1 3 99
2 0 10
2 1 53
2 2 37
2 3 58
3 0 24
3 1 13
3 2 2
3 3 87
2 1 17 0 16
0 0 10
0 1 83
0 2 90
0 3 36
1 0 4
1 1 41
1 2 61
1 3 93
2 0 99
2 1 85
2 2 52
2 3 31
3 0 68
3 1 40
3 2 73
3 3 76
2 1 19 0 16
0 0 67
0 1 22
0 2 64
0 3 26
1 0 11
1 1 100
1 2 83
1 3 3
2 0 80
2 1 44
2 2 25
2 3 46
3 0 19
3 1 84
3 2 94
3 3 43
2 1 20 0 16
0 0 100
0 1 89
0 2 50
0 3 96
1 0 56
1 1 30
1 2 74
1 3 24
2 0 6
2 1 55
2 2 52
2 3 20
3 0 71
3 1 68
3 2 24
3 3 40
2 1 29 0 16
0 0 21
0 1 14
0 2 51
0 3 50
1 0 18
1 1 59
1 2 96
1 3 65
2 0 55
2 1 41
2 2 63
2 3 83
3 0 30
3 1 29
3 2 59
3 3 60
2 1 30 0 16
0 0 36
0 1 32
0 2 64
0 3 50
1 0 97
1 1 53
1 2 58
1 3 37
2 0 23
2 1 59
2 2 92
2 3 83
3 0 55
3 1 80
3 2 63
3 3 60
2 2 47 0 16
0 0 6
0 1 36
0 2 61
0 3 98
1 0 42
1 1 15
1 2 5
1 3 75
2 0 74
2 1 35
2 2 64
2 3 57
3 0 75
3 1 69
3 2 86
3 3 65
2 2 40 0 16
0 0 16
0 1 49
0 2 81
0 3 18
1 0 33
1 1 35
1 2 24
1 3 48
2 0 31
2 1 57
2 2 18
2 3 4
3 0 4
3 1 50
3 2 51
3 3 5
2 2 44 0 16
0 0 87
0 1 79
0 2 21
0 3 26
1 0 52
1 1 87
1 2 96
1 3 73
2 0 93
2 1 99
2 2 1
2 3 57
3 0 93
3 1 32
3 2 80
3 3 32
2 2 11 0 16
0 0 14
0 1 42
0 2 46
0 3 10
1 0 8
1 1 20
1 2 89
1 3 19
2 0 63
2 1 57
2 2 29
2 3 83
3 0 18
3 1 28
3 2 13
3 3 77
2 2 12 0 16
0 0 59
0 1 70
0 2 57
0 3 54
1 0 17
1 1 17
1 2 50
1 3 34
2 0 14
2 1 45
2 2 31
2 3 97
3 0 48
3 1 8
3 2 89
3 3 30
2 2 13 0 16
0 0 52
0 1 60
0 2 88
0 3 59
1 0 30
1 1 70
1 2 15
1 3 56
2 0 96
2 1 21
2 2 18
2 3 100
3 0 98
3 1 52
3 2 72
3 3 59
2 2 14 0 16
0 0 65
0 1 96
0 2 61
0 3 48
1 0 83
1 1 54
1 2 1
1 3 41
2 0 91
2 1 95
2 2 89
2 3 94
3 0 72
3 1 88
3 2 87
3 3 19
2 2 45 0 16
0 0 6
0 1 55
0 2 29
0 3 58
1 0 76
1 1 86
1 2 74
1 3 91
2 0 5
2 1 8
2 2 32
2 3 37
3 0 96
3 1 56
3 2 66
3 3 71
2 2 48 0 16
0 0 94
0 1 46
0 2 64
0 3 24
1 0 23
1 1 66
1 2 80
1 3 40
2 0 55
2 1 61
2 2 32
2 3 50
3 0 12
3 1 51
3 2 60
3 3 54
2 2 19 0 16
0 0 37
0 1 31
0 2 38
0 3 60
1 0 49
1 1 15
1 2 15
1 3 21
2 0 89
2 1 34
2 2 66
2 3 16
3 0 27
3 1 62
3 2 81
3 3 42
2 2 23 0 16
0 0 99
0 1 73
0 2 35
0 3 47
1 0 61
1 1 96
1 2 68
1 3 34
2 0 95
2 1 46
2 2 9
2 3 100
3 0 79
3 1 11
3 2 68
3 3 88
2 2 27 0 16
0 0 73
0 1 68
0 2 1
0 3 55
1 0 93
1 1 63
1 2 87
1 3 63
2 0 62
2 1 18
2 2 1
2 3 64
3 0 88
3 1 6
3 2 78
3 3 94
2 2 29 0 16
0 0 75
0 1 85
0 2 6
0 3 93
1 0 70
1 1 24
1 2 29
1 3 39
2 0 25
2 1 83
2 2 8
2 3 80
3 0 100
3 1 78
3 2 95
3 3 94
2 2 30 0 16
0 0 83
0 1 91
0 2 32
0 3 60
1 0 66
1 1 93
1 2 97
1 3 57
2 0 50
2 1 65
2 2 27
2 3 86
3 0 53
3 1 89
3 2 35
3 3 4
2 3 36 0 16
0 0 82
0 1 95
0 2 29
0 3 8
1 0 6
1 1 72
1 2 28
1 3 7
2 0 76
2 1 83
2 2 77
2 3 20
3 0 11
3 1 64
3 2 69
3 3 24
2 3 8 0 16
0 0 53
0 1 60
0 2 41
0 3 96
1 0 64
1 1 89
1 2 10
1 3 56
2 0 74
2 1 9
2 2 22
2 3 85
3 0 97
3 1 73
3 2 79
3 3 37
2 3 42 0 16
0 0 21
0 1 11
0 2 14
0 3 34
1 0 65
1 1 29
1 2 36
1 3 39
2 0 44
2 1 17
2 2 73
2 3 55
3 0 17
3 1 92
3 2 33
3 3 52
2 3 12 0 16
0 0 11
0 1 28
0 2 87
0 3 18
1 0 27
1 1 55
1 2 1
1 3 79
2 0 22
2 1 72
2 2 41
2 3 97
3 0 26
3 1 55
3 2 83
3 3 67
2 3 47 0 16
0 0 84
0 1 12
0 2 72
0 3 88
1 0 7
1 1 46
1 2 77
1 3 4
2 0 19
2 1 8
2 2 18
2 3 14
3 0 47
3 1 34
3 2 49
3 3 5
2 3 16 0 16
0 0 42
0 1 91
0 2 90
0 3 91
1 0 28
1 1 32
1 2 80
1 3 40
2 0 12
2 1 46
2 2 77
2 3 66
3 0 17
3 1 83
3 2 2
3 3 23
2 3 20 0 16
0 0 43
0 1 53
0 2 17
0 3 18
1 0 40
1 1 56
1 2 45
1 3 19
2 0 17
2 1 78
2 2 62
2 3 13
3 0 6
3 1 34
3 2 28
3 3 39
2 3 21 0 16
0 0 47
0 1 63
0 2 27
0 3 83
1 0 62
1 1 59
1 2 68
1 3 69
2 0 3
2 1 2
2 2 6
2 3 13
3 0 52
3 1 84
3 2 84
3 3 98
2 3 22 0 16
0 0 61
0 1 5
0 2 62
0 3 28
1 0 41
1 1 90
1 2 45
1 3 50
2 0 3
2 1 13
2 2 83
2 3 88
3 0 95
3 1 43
3 2 59
3 3 95
2 3 26 0 16
0 0 60
0 1 79
0 2 60
0 3 33
1 0 39
1 1 98
1 2 79
1 3 16
2 0 47
2 1 77
2 2 4
2 3 97
3 0 86
3 1 59
3 2 52
3 3 4
2 3 29 0 16
0 0 49
0 1 44
0 2 59
0 3 90
1 0 43
1 1 6
1 2 63
1 3 46
2 0 32
2 1 33
2 2 6
2 3 85
3 0 33
3 1 27
3 2 57
3 3 40
2 4 38 0 16
0 0 51
0 1 97
0 2 72
0 3 45
1 0 76
1 1 58
1 2 27
1 3 76
2 0 90
2 1 82
2 2 25
2 3 47
3 0 89
3 1 77
3 2 91
3 3 77
2 4 41 0 16
0 0 25
0 1 56
0 2 71
0 3 37
1 0 44
1 1 88
1 2 82
1 3 13
2 0 15
2 1 86
2 2 31
2 3 95
3 0 38
3 1 89
3 2 52
3 3 55
2 4 10 0 16
0 0 43
0 1 8
0 2 11
0 3 48
1 0 86
1 1 92
1 2 49
1 3 65
2 0 31
2 1 33
2 2 38
2 3 90
3 0 100
3 1 48
3 2 76
3 3 49
2 4 44 0 16
0 0 6
0 1 88
0 2 34
0 3 88
1 0 99
1 1 30
1 2 65
1 3 80
2 0 57
2 1 6
2 2 53
2 3 20
3 0 57
3 1 28
3 2 9
3 3 12
2 4 46 0 16
0 0 92
0 1 81
0 2 38
0 3 18
1 0 15
1 1 74
1 2 67
1 3 65
2 0 34
2 1 70
2 2 87
2 3 60
3 0 75
3 1 91
3 2 50
3 3 2
2 4 18 0 16
0 0 95
0 1 96
0 2 60
0 3 75
1 0 7
1 1 24
1 2 8
1 3 12
2 0 66
2 1 89
2 2 69
2 3 43
3 0 86
3 1 13
3 2 18
3 3 89
2 4 42 0 16
0 0 66
0 1 82
0 2 72
0 3 38
1 0 37
1 1 5
1 2 10
1 3 63
2 0 55
2 1 66
2 2 45
2 3 61
3 0 95
3 1 68
3 2 37
3 3 55
2 4 27 0 16
0 0 34
0 1 1
0 2 32
0 3 76
1 0 36
1 1 41
1 2 49
1 3 22
2 0 4
2 1 72
2 2 62
2 3 49
3 0 86
3 1 75
3 2 84
3 3 89
2 4 29 0 16
0 0 14
0 1 35
0 2 74
0 3 68
1 0 7
1 1 28
1 2 48
1 3 59
2 0 93
2 1 4
2 2 51
2 3 19
3 0 27
3 1 79
3 2 58
3 3 6
2 5 6 0 16
0 0 84
0 1 14
0 2 52
0 3 65
1 0 8
1 1 30
1 2 34
1 3 58
2 0 78
2 1 26
2 2 94
2 3 9
3 0 55
3 1 84
3 2 4
3 3 4
2 5 41 0 16
0 0 22
0 1 41
0 2 10
0 3 23
1 0 87
1 1 18
1 2 86
1 3 12
2 0 40
2 1 17
2 2 94
2 3 98
3 0 62
3 1 7
3 2 8
3 3 53
2 5 42 0 16
0 0 30
0 1 29
0 2 95
0 3 2
1 0 79
1 1 14
1 2 96
1 3 53
2 0 2
2 1 45
2 2 14
2 3 21
3 0 77
3 1 86
3 2 8
3 3 28
2 5 11 0 16
0 0 91
0 1 27
0 2 53
0 3 3
1 0 73
1 1 2
1 2 32
1 3 44
2 0 63
2 1 19
2 2 81
2 3 76
3 0 93
3 1 8
3 2 30
3 3 94
2 5 14 0 16
0 0 10
0 1 14
0 2 24
0 3 5
1 0 76
1 1 100
1 2 28
1 3 36
2 0 50
2 1 27
2 2 36
2 3 88
3 0 4
3 1 9
3 2 4
3 3 2
2 5 15 0 16
0 0 96
0 1 68
0 2 77
0 3 56
1 0 66
1 1 71
1 2 60
1 3 94
2 0 89
2 1 41
2 2 10
2 3 33
3 0 92
3 1 3
3 2 3
3 3 33
2 5 48 0 16
0 0 34
0 1 27
0 2 88
0 3 64
1 0 77
1 1 72
1 2 52
1 3 58
2 0 3
2 1 28
2 2 73
2 3 75
3 0 63
3 1 33
3 2 90
3 3 10
2 5 17 0 16
0 0 23
0 1 6
0 2 17
0 3 15
1 0 72
1 1 53
1 2 41
1 3 17
2 0 24
2 1 57
2 2 6
2 3 71
3 0 87
3 1 40
3 2 50
3 3 43
2 5 19 0 16
0 0 52
0 1 12
0 2 71
0 3 54
1 0 76
1 1 21
1 2 82
1 3 71
2 0 95
2 1 98
2 2 76
2 3 20
3 0 24
3 1 8
3 2 86
3 3 9
2 5 28 0 16
0 0 90
0 1 92
0 2 39
0 3 33
1 0 79
1 1 42
1 2 64
1 3 77
2 0 79
2 1 46
2 2 35
2 3 65
3 0 2
3 1 36
3 2 83
3 3 90
2 6 35 0 16
0 0 97
0 1 78
0 2 82
0 3 46
1 0 7
1 1 70
1 2 86
1 3 90
2 0 92
2 1 56
2 2 64
2 3 68
3 0 67
3 1 52
3 2 88
3 3 61
2 6 38 0 16
0 0 46
0 1 93
0 2 5
0 3 18
1 0 66
1 1 58
1 2 47
1 3 78
2 0 85
2 1 86
2 2 1
2 3 68
3 0 94
3 1 94
3 2 46
3 3 59
2 6 39 0 16
0 0 53
0 1 4
0 2 15
0 3 64
1 0 73
1 1 1
1 2 36
1 3 91
2 0 22
2 1 77
2 2 89
2 3 74
3 0 53
3 1 6
3 2 66
3 3 93
2 6 40 0 16
0 0 10
0 1 9
0 2 36
0 3 25
1 0 75
1 1 41
1 2 42
1 3 69
2 0 53
2 1 74
2 2 22
2 3 62
3 0 55
3 1 81
3 2 83
3 3 6
2 6 9 0 16
0 0 61
0 1 81
0 2 77
0 3 92
1 0 4
1 1 56
1 2 74
1 3 11
2 0 19
2 1 98
2 2 59
2 3 72
3 0 82
3 1 75
3 2 40
3 3 33
2 6 15 0 16
0 0 60
0 1 15
0 2 50
0 3 28
1 0 12
1 1 76
1 2 22
1 3 54
2 0 48
2 1 75
2 2 86
2 3 97
3 0 55
3 1 69
3 2 83
3 3 21
2 6 48 0 16
0 0 9
0 1 66
0 2 66
0 3 42
1 0 79
1 1 32
1 2 62
1 3 98
2 0 33
2 1 8
2 2 23
2 3 74
3 0 65
3 1 46
3 2 41
3 3 28
2 6 20 0 16
0 0 8
0 1 49
0 2 65
0 3 74
1 0 30
1 1 45
1 2 65
1 3 89
2 0 42
2 1 46
2 2 45
2 3 18
3 0 24
3 1 21
3 2 70
3 3 57
2 6 41 0 16
0 0 14
0 1 80
0 2 9
0 3 43
1 0 68
1 1 29
1 2 90
1 3 18
2 0 82
2 1 95
2 2 24
2 3 40
3 0 39
3 1 1
3 2 60
3 3 26
2 6 28 0 16
0 0 17
0 1 15
0 2 9
0 3 25
1 0 59
1 1 66
1 2 85
1 3 26
2 0 28
2 1 45
2 2 10
2 3 43
3 0 6
3 1 79
3 2 64
3 3 79
2 6 30 0 16
0 0 38
0 1 59
0 2 27
0 3 77
1 0 29
1 1 21
1 2 62
1 3 86
2 0 35
2 1 93
2 2 88
2 3 90
3 0 46
3 1 33
3 2 14
3 3 76
2 7 33 0 16
0 0 89
0 1 81
0 2 66
0 3 77
1 0 62
1 1 82
1 2 90
1 3 84
2 0 10
2 1 51
2 2 15
2 3 95
3 0 18
3 1 93
3 2 67
3 3 32
2 7 37 0 16
0 0 41
0 1 5
0 2 43
0 3 75
1 0 37
1 1 78
1 2 31
1 3 6
2 0 57
2 1 76
2 2 8
2 3 11
3 0 55
3 1 81
3 2 59
3 3 54
2 7 8 0 16
0 0 62
0 1 14
0 2 22
0 3 7
1 0 73
1 1 68
1 2 58
1 3 45
2 0 100
2 1 69
2 2 89
2 3 2
3 0 27
3 1 47
3 2 71
3 3 84
2 7 41 0 16
0 0 66
0 1 46
0 2 71
0 3 98
1 0 13
1 1 90
1 2 85
1 3 28
2 0 38
2 1 79
2 2 23
2 3 62
3 0 77
3 1 50
3 2 41
3 3 18
2 7 10 0 16
0 0 1
0 1 99
0 2 10
0 3 89
1 0 29
1 1 42
1 2 59
1 3 5
2 0 46
2 1 65
2 2 41
2 3 32
3 0 12
3 1 63
3 2 95
3 3 65
2 7 11 0 16
0 0 23
0 1 67
0 2 86
0 3 25
1 0 47
1 1 26
1 2 88
1 3 28
2 0 2
2 1 66
2 2 23
2 3 19
3 0 85
3 1 50
3 2 11
3 3 2
2 7 46 0 16
0 0 81
0 1 56
0 2 29
0 3 64
1 0 68
1 1 45
1 2 69
1 3 70
2 0 48
2 1 12
2 2 89
2 3 7
3 0 25
3 1 65
3 2 40
3 3 45
2 7 15 0 16
0 0 59
0 1 85
0 2 70
0 3 91
1 0 33
1 1 22
1 2 86
1 3 11
2 0 95
2 1 32
2 2 67
2 3 49
3 0 14
3 1 19
3 2 51
3 3 39
2 7 18 0 16
0 0 90
0 1 62
0 2 100
0 3 57
1 0 44
1 1 48
1 2 55
1 3 42
2 0 57
2 1 13
2 2 92
2 3 63
3 0 18
3 1 31
3 2 41
3 3 52
2 7 19 0 16
0 0 71
0 1 19
0 2 78
0 3 37
1 0 80
1 1 45
1 2 39
1 3 3
2 0 88
2 1 12
2 2 75
2 3 16
3 0 93
3 1 68
3 2 6
3 3 69
2 7 22 0 16
0 0 19
0 1 10
0 2 12
0 3 81
1 0 6
1 1 25
1 2 66
1 3 84
2 0 95
2 1 85
2 2 49
2 3 17
3 0 16
3 1 20
3 2 84
3 3 13
2 7 29 0 16
0 0 84
0 1 14
0 2 97
0 3 19
1 0 40
1 1 94
1 2 66
1 3 45
2 0 94
2 1 62
2 2 22
2 3 30
3 0 72
3 1 54
3 2 84
3 3 83
2 8 9 0 16
0 0 9
0 1 92
0 2 33
0 3 18
1 0 5
1 1 93
1 2 27
1 3 53
2 0 64
2 1 92
2 2 74
2 3 21
3 0 12
3 1 1
3 2 14
3 3 20
2 8 10 0 16
0 0 84
0 1 70
0 2 92
0 3 47
1 0 41
1 1 53
1 2 42
1 3 15
2 0 63
2 1 31
2 2 40
2 3 43
3 0 64
3 1 33
3 2 15
3 3 78
2 8 43 0 16
0 0 17
0 1 67
0 2 13
0 3 30
1 0 87
1 1 88
1 2 34
1 3 100
2 0 48
2 1 20
2 2 17
2 3 74
3 0 27
3 1 76
3 2 60
3 3 76
2 8 48 0 16
0 0 3
0 1 99
0 2 4
0 3 98
1 0 97
1 1 75
1 2 47
1 3 83
2 0 90
2 1 59
2 2 51
2 3 23
3 0 43
3 1 81
3 2 20
3 3 88
2 8 21 0 16
0 0 42
0 1 19
0 2 76
0 3 29
1 0 2
1 1 16
1 2 35
1 3 41
2 0 31
2 1 75
2 2 30
2 3 42
3 0 36
3 1 14
3 2 60
3 3 75
2 8 22 0 16
0 0 89
0 1 37
0 2 70
0 3 22
1 0 9
1 1 41
1 2 9
1 3 64
2 0 52
2 1 72
2 2 72
2 3 72
3 0 81
3 1 33
3 2 64
3 3 64
2 9 47 0 16
0 0 45
0 1 9
0 2 86
0 3 40
1 0 19
1 1 60
1 2 97
1 3 9
2 0 19
2 1 76
2 2 88
2 3 41
3 0 55
3 1 78
3 2 92
3 3 65
2 9 16 0 16
0 0 44
0 1 34
0 2 40
0 3 6
1 0 70
1 1 59
1 2 40
1 3 84
2 0 27
2 1 46
2 2 7
2 3 13
3 0 21
3 1 11
3 2 97
3 3 81
2 9 40 0 16
0 0 53
0 1 99
0 2 33
0 3 44
1 0 38
1 1 100
1 2 61
1 3 57
2 0 91
2 1 26
2 2 37
2 3 55
3 0 35
3 1 90
3 2 100
3 3 53
2 9 21 0 16
0 0 77
0 1 91
0 2 14
0 3 65
1 0 6
1 1 14
1 2 93
1 3 9
2 0 7
2 1 90
2 2 92
2 3 44
3 0 89
3 1 35
3 2 36
3 3 18
2 9 23 0 16
0 0 58
0 1 94
0 2 39
0 3 22
1 0 81
1 1 42
1 2 66
1 3 4
2 0 51
2 1 72
2 2 88
2 3 9
3 0 77
3 1 5
3 2 49
3 3 78
2 9 26 0 16
0 0 82
0 1 13
0 2 10
0 3 25
1 0 19
1 1 62
1 2 49
1 3 11
2 0 12
2 1 38
2 2 94
2 3 88
3 0 40
3 1 27
3 2 88
3 3 90
2 10 32 0 16
0 0 51
0 1 100
0 2 77
0 3 91
1 0 89
1 1 31
1 2 45
1 3 86
2 0 84
2 1 96
2 2 66
2 3 15
3 0 39
3 1 92
3 2 59
3 3 32
2 10 38 0 16
0 0 79
0 1 44
0 2 66
0 3 63
1 0 65
1 1 60
1 2 13
1 3 91
2 0 22
2 1 35
2 2 82
2 3 77
3 0 5
3 1 4
3 2 11
3 3 6
2 10 44 0 16
0 0 6
0 1 61
0 2 32
0 3 63
1 0 80
1 1 4
1 2 23
1 3 37
2 0 45
2 1 76
2 2 92
2 3 53
3 0 72
3 1 83
3 2 5
3 3 14
2 10 11 0 16
0 0 84
0 1 58
0 2 2
0 3 24
1 0 50
1 1 33
1 2 25
1 3 85
2 0 17
2 1 50
2 2 5
2 3 89
3 0 63
3 1 42
3 2 35
3 3 38
2 10 12 0 16
0 0 29
0 1 83
0 2 91
0 3 52
1 0 22
1 1 45
1 2 42
1 3 12
2 0 97
2 1 72
2 2 55
2 3 9
3 0 45
3 1 84
3 2 22
3 3 67
2 10 13 0 16
0 0 38
0 1 36
0 2 43
0 3 94
1 0 95
1 1 75
1 2 21
1 3 16
2 0 85
2 1 45
2 2 15
2 3 36
3 0 23
3 1 9
3 2 66
3 3 38
2 10 21 0 16
0 0 64
0 1 97
0 2 50
0 3 82
1 0 82
1 1 92
1 2 10
1 3 23
2 0 34
2 1 98
2 2 62
2 3 72
3 0 26
3 1 78
3 2 65
3 3 84
2 10 25 0 16
0 0 4
0 1 30
0 2 38
0 3 19
1 0 46
1 1 57
1 2 45
1 3 75
2 0 13
2 1 66
2 2 5
2 3 4
3 0 85
3 1 49
3 2 54
3 3 32
2 10 26 0 16
0 0 66
0 1 52
0 2 71
0 3 60
1 0 54
1 1 41
1 2 74
1 3 79
2 0 88
2 1 42
2 2 34
2 3 88
3 0 78
3 1 38
3 2 14
3 3 95
2 10 31 0 16
0 0 70
0 1 50
0 2 29
0 3 72
1 0 17
1 1 5
1 2 69
1 3 58
2 0 66
2 1 60
2 2 73
2 3 61
3 0 4
3 1 72
3 2 53
3 3 77
2 11 35 0 16
0 0 38
0 1 65
0 2 22
0 3 19
1 0 3
1 1 5
1 2 70
1 3 29
2 0 26
2 1 62
2 2 76
2 3 65
3 0 62
3 1 22
3 2 53
3 3 48
2 11 36 0 16
0 0 30
0 1 49
0 2 87
0 3 43
1 0 14
1 1 14
1 2 45
1 3 73
2 0 37
2 1 18
2 2 84
2 3 97
3 0 43
3 1 51
3 2 30
3 3 76
2 11 18 0 16
0 0 13
0 1 93
0 2 66
0 3 2
1 0 53
1 1 98
1 2 91
1 3 81
2 0 81
2 1 2
2 2 73
2 3 31
3 0 20
3 1 21
3 2 47
3 3 95
2 11 23 0 16
0 0 23
0 1 57
0 2 37
0 3 29
1 0 31
1 1 70
1 2 42
1 3 19
2 0 35
2 1 24
2 2 18
2 3 85
3 0 29
3 1 70
3 2 65
3 3 3
2 11 29 0 16
0 0 8
0 1 33
0 2 48
0 3 95
1 0 85
1 1 8
1 2 11
1 3 75
2 0 19
2 1 54
2 2 18
2 3 55
3 0 82
3 1 25
3 2 9
3 3 38
2 12 33 0 16
0 0 4
0 1 43
0 2 94
0 3 56
1 0 98
1 1 8
1 2 81
1 3 8
2 0 3
2 1 88
2 2 62
2 3 14
3 0 33
3 1 94
3 2 18
3 3 35
2 12 47 0 16
0 0 26
0 1 100
0 2 42
0 3 27
1 0 93
1 1 73
1 2 96
1 3 61
2 0 19
2 1 72
2 2 88
2 3 46
3 0 85
3 1 9
3 2 99
3 3 29
2 12 17 0 16
0 0 88
0 1 85
0 2 70
0 3 96
1 0 64
1 1 14
1 2 38
1 3 24
2 0 55
2 1 72
2 2 88
2 3 49
3 0 55
3 1 66
3 2 71
3 3 90
2 12 25 0 16
0 0 57
0 1 5
0 2 49
0 3 32
1 0 31
1 1 32
1 2 29
1 3 58
2 0 19
2 1 30
2 2 21
2 3 84
3 0 94
3 1 57
3 2 49
3 3 3
2 12 28 0 16
0 0 59
0 1 91
0 2 38
0 3 89
1 0 65
1 1 48
1 2 33
1 3 49
2 0 74
2 1 67
2 2 60
2 3 24
3 0 57
3 1 83
3 2 28
3 3 63
2 12 42 0 16
0 0 84
0 1 31
0 2 45
0 3 69
1 0 79
1 1 1
1 2 7
1 3 14
2 0 33
2 1 12
2 2 80
2 3 78
3 0 1
3 1 13
3 2 84
3 3 79
2 13 34 0 16
0 0 28
0 1 88
0 2 16
0 3 52
1 0 20
1 1 47
1 2 92
1 3 65
2 0 96
2 1 80
2 2 8
2 3 1
3 0 62
3 1 94
3 2 62
3 3 57
2 13 35 0 16
0 0 12
0 1 42
0 2 59
0 3 59
1 0 34
1 1 18
1 2 66
1 3 54
2 0 43
2 1 27
2 2 5
2 3 26
3 0 1
3 1 33
3 2 18
3 3 68
2 13 36 0 16
0 0 45
0 1 47
0 2 7
0 3 94
1 0 45
1 1 33
1 2 19
1 3 37
2 0 24
2 1 38
2 2 51
2 3 70
3 0 6
3 1 38
3 2 55
3 3 89
2 13 41 0 16
0 0 98
0 1 44
0 2 86
0 3 14
1 0 30
1 1 18
1 2 16
1 3 46
2 0 8
2 1 36
2 2 78
2 3 79
3 0 20
3 1 23
3 2 14
3 3 55
2 13 47 0 16
0 0 5
0 1 62
0 2 95
0 3 93
1 0 61
1 1 36
1 2 48
1 3 90
2 0 1
2 1 24
2 2 37
2 3 78
3 0 73
3 1 7
3 2 18
3 3 13
2 13 15 0 16
0 0 77
0 1 54
0 2 100
0 3 11
1 0 42
1 1 27
1 2 56
1 3 14
2 0 28
2 1 10
2 2 99
2 3 69
3 0 42
3 1 52
3 2 90
3 3 41
2 13 48 0 16
0 0 82
0 1 43
0 2 46
0 3 26
1 0 68
1 1 91
1 2 9
1 3 92
2 0 49
2 1 94
2 2 98
2 3 24
3 0 77
3 1 61
3 2 2
3 3 56
2 13 27 0 16
0 0 46
0 1 10
0 2 43
0 3 85
1 0 18
1 1 75
1 2 51
1 3 69
2 0 58
2 1 8
2 2 23
2 3 50
3 0 68
3 1 97
3 2 45
3 3 42
2 13 30 0 16
0 0 23
0 1 28
0 2 70
0 3 70
1 0 12
1 1 4
1 2 100
1 3 79
2 0 23
2 1 12
2 2 85
2 3 38
3 0 18
3 1 47
3 2 8
3 3 16
2 14 48 0 16
0 0 33
0 1 15
0 2 33
0 3 25
1 0 32
1 1 95
1 2 50
1 3 8
2 0 51
2 1 98
2 2 12
2 3 27
3 0 51
3 1 72
3 2 72
3 3 80
2 14 15 0 16
0 0 70
0 1 52
0 2 54
0 3 94
1 0 43
1 1 48
1 2 70
1 3 81
2 0 92
2 1 91
2 2 96
2 3 93
3 0 59
3 1 9
3 2 82
3 3 45
2 14 16 0 16
0 0 38
0 1 47
0 2 77
0 3 69
1 0 61
1 1 29
1 2 72
1 3 80
2 0 5
2 1 92
2 2 1
2 3 78
3 0 59
3 1 47
3 2 33
3 3 71
2 14 24 0 16
0 0 58
0 1 29
0 2 25
0 3 1
1 0 53
1 1 10
1 2 77
1 3 58
2 0 99
2 1 2
2 2 26
2 3 37
3 0 97
3 1 52
3 2 92
3 3 96
2 14 30 0 16
0 0 28
0 1 63
0 2 69
0 3 67
1 0 40
1 1 23
1 2 44
1 3 66
2 0 43
2 1 60
2 2 59
2 3 5
3 0 24
3 1 41
3 2 91
3 3 42
2 14 31 0 16
0 0 66
0 1 50
0 2 97
0 3 46
1 0 30
1 1 94
1 2 94
1 3 3
2 0 49
2 1 36
2 2 55
2 3 28
3 0 31
3 1 69
3 2 5
3 3 26
2 15 36 0 16
0 0 12
0 1 26
0 2 15
0 3 8
1 0 18
1 1 71
1 2 25
1 3 85
2 0 11
2 1 29
2 2 35
2 3 8
3 0 33
3 1 47
3 2 41
3 3 54
2 15 40 0 16
0 0 26
0 1 16
0 2 62
0 3 41
1 0 40
1 1 65
1 2 30
1 3 40
2 0 73
2 1 98
2 2 26
2 3 99
3 0 30
3 1 92
3 2 69
3 3 6
2 15 47 0 16
0 0 30
0 1 79
0 2 37
0 3 75
1 0 19
1 1 47
1 2 18
1 3 22
2 0 98
2 1 47
2 2 60
2 3 91
3 0 2
3 1 6
3 2 95
3 3 43
2 15 29 0 16
0 0 59
0 1 59
0 2 7
0 3 21
1 0 72
1 1 13
1 2 30
1 3 39
2 0 85
2 1 99
2 2 83
2 3 31
3 0 56
3 1 10
3 2 62
3 3 82
2 16 39 0 16
0 0 90
0 1 21
0 2 92
0 3 87
1 0 83
1 1 12
1 2 92
1 3 9
2 0 53
2 1 18
2 2 42
2 3 98
3 0 34
3 1 80
3 2 72
3 3 65
2 16 43 0 16
0 0 67
0 1 4
0 2 11
0 3 83
1 0 95
1 1 55
1 2 94
1 3 46
2 0 77
2 1 62
2 2 59
2 3 23
3 0 92
3 1 58
3 2 44
3 3 94
2 16 19 0 16
0 0 57
0 1 45
0 2 44
0 3 44
1 0 23
1 1 26
1 2 47
1 3 4
2 0 93
2 1 26
2 2 14
2 3 21
3 0 2
3 1 82
3 2 12
3 3 3
2 16 46 0 16
0 0 26
0 1 9
0 2 37
0 3 57
1 0 65
1 1 73
1 2 10
1 3 9
2 0 65
2 1 11
2 2 35
2 3 64
3 0 13
3 1 68
3 2 55
3 3 3
2 16 23 0 16
0 0 2
0 1 68
0 2 29
0 3 24
1 0 61
1 1 14
1 2 89
1 3 39
2 0 59
2 1 61
2 2 56
2 3 43
3 0 15
3 1 50
3 2 57
3 3 69
2 16 24 0 16
0 0 86
0 1 30
0 2 63
0 3 76
1 0 38
1 1 64
1 2 10
1 3 58
2 0 85
2 1 32
2 2 76
2 3 46
3 0 51
3 1 39
3 2 83
3 3 18
2 16 27 0 16
0 0 13
0 1 31
0 2 49
0 3 30
1 0 95
1 1 55
1 2 75
1 3 30
2 0 55
2 1 69
2 2 15
2 3 79
3 0 15
3 1 96
3 2 14
3 3 35
2 16 28 0 16
0 0 44
0 1 51
0 2 45
0 3 72
1 0 80
1 1 24
1 2 47
1 3 23
2 0 25
2 1 73
2 2 44
2 3 10
3 0 73
3 1 9
3 2 51
3 3 81
2 16 31 0 16
0 0 29
0 1 60
0 2 70
0 3 84
1 0 22
1 1 3
1 2 29
1 3 42
2 0 67
2 1 50
2 2 66
2 3 93
3 0 14
3 1 84
3 2 99
3 3 8
2 17 32 0 16
0 0 13
0 1 53
0 2 53
0 3 97
1 0 66
1 1 20
1 2 86
1 3 47
2 0 74
2 1 54
2 2 56
2 3 8
3 0 31
3 1 73
3 2 100
3 3 4
2 18 20 0 16
0 0 61
0 1 78
0 2 44
0 3 19
1 0 6
1 1 33
1 2 12
1 3 86
2 0 92
2 1 46
2 2 57
2 3 31
3 0 10
3 1 43
3 2 58
3 3 73
2 18 39 0 16
0 0 77
0 1 85
0 2 99
0 3 76
1 0 25
1 1 34
1 2 42
1 3 29
2 0 72
2 1 4
2 2 47
2 3 37
3 0 51
3 1 54
3 2 29
3 3 84
2 18 30 0 16
0 0 60
0 1 9
0 2 86
0 3 93
1 0 74
1 1 38
1 2 12
1 3 86
2 0 55
2 1 84
2 2 64
2 3 51
3 0 80
3 1 19
3 2 38
3 3 33
2 19 32 0 16
0 0 48
0 1 41
0 2 7
0 3 83
1 0 8
1 1 1
1 2 53
1 3 93
2 0 91
2 1 53
2 2 17
2 3 1
3 0 89
3 1 64
3 2 68
3 3 97
2 19 35 0 16
0 0 23
0 1 20
0 2 33
0 3 86
1 0 57
1 1 74
1 2 5
1 3 12
2 0 3
2 1 12
2 2 74
2 3 86
3 0 28
3 1 27
3 2 68
3 3 74
2 19 33 0 16
0 0 29
0 1 30
0 2 82
0 3 14
1 0 46
1 1 67
1 2 91
1 3 30
2 0 50
2 1 1
2 2 15
2 3 92
3 0 55
3 1 80
3 2 42
3 3 96
2 19 27 0 16
0 0 27
0 1 30
0 2 79
0 3 47
1 0 53
1 1 38
1 2 55
1 3 23
2 0 97
2 1 100
2 2 64
2 3 36
3 0 49
3 1 59
3 2 77
3 3 15
2 20 39 0 16
0 0 41
0 1 69
0 2 47
0 3 91
1 0 49
1 1 78
1 2 42
1 3 45
2 0 67
2 1 99
2 2 8
2 3 99
3 0 16
3 1 78
3 2 6
3 3 88
2 20 41 0 16
0 0 82
0 1 41
0 2 17
0 3 23
1 0 20
1 1 83
1 2 12
1 3 44
2 0 27
2 1 30
2 2 47
2 3 71
3 0 36
3 1 94
3 2 73
3 3 68
2 20 44 0 16
0 0 30
0 1 4
0 2 76
0 3 11
1 0 20
1 1 8
1 2 3
1 3 23
2 0 67
2 1 29
2 2 82
2 3 76
3 0 29
3 1 40
3 2 99
3 3 47
2 20 22 0 16
0 0 3
0 1 68
0 2 5
0 3 37
1 0 98
1 1 96
1 2 48
1 3 57
2 0 84
2 1 91
2 2 48
2 3 67
3 0 66
3 1 54
3 2 59
3 3 67
2 20 23 0 16
0 0 61
0 1 75
0 2 54
0 3 87
1 0 59
1 1 71
1 2 96
1 3 80
2 0 89
2 1 32
2 2 67
2 3 58
3 0 79
3 1 92
3 2 26
3 3 19
2 20 29 0 16
0 0 94
0 1 77
0 2 9
0 3 88
1 0 69
1 1 88
1 2 22
1 3 45
2 0 93
2 1 18
2 2 19
2 3 81
3 0 64
3 1 15
3 2 76
3 3 86
2 21 34 0 16
0 0 42
0 1 29
0 2 53
0 3 9
1 0 81
1 1 94
1 2 39
1 3 93
2 0 26
2 1 51
2 2 17
2 3 74
3 0 83
3 1 22
3 2 98
3 3 43
2 21 44 0 16
0 0 97
0 1 38
0 2 97
0 3 38
1 0 55
1 1 45
1 2 38
1 3 38
2 0 80
2 1 33
2 2 94
2 3 57
3 0 10
3 1 15
3 2 48
3 3 82
2 21 48 0 16
0 0 77
0 1 89
0 2 64
0 3 70
1 0 6
1 1 5
1 2 75
1 3 92
2 0 87
2 1 88
2 2 67
2 3 9
3 0 31
3 1 89
3 2 51
3 3 86
2 21 40 0 16
0 0 6
0 1 21
0 2 76
0 3 53
1 0 19
1 1 93
1 2 90
1 3 91
2 0 52
2 1 45
2 2 100
2 3 38
3 0 45
3 1 57
3 2 64
3 3 21
2 22 32 0 16
0 0 73
0 1 8
0 2 90
0 3 75
1 0 51
1 1 6
1 2 70
1 3 5
2 0 82
2 1 8
2 2 68
2 3 75
3 0 4
3 1 12
3 2 7
3 3 37
2 22 46 0 16
0 0 69
0 1 19
0 2 46
0 3 75
1 0 20
1 1 64
1 2 59
1 3 95
2 0 72
2 1 11
2 2 99
2 3 29
3 0 91
3 1 33
3 2 63
3 3 33
2 22 40 0 16
0 0 31
0 1 68
0 2 84
0 3 72
1 0 77
1 1 50
1 2 8
1 3 90
2 0 22
2 1 33
2 2 46
2 3 53
3 0 36
3 1 12
3 2 30
3 3 68
2 22 35 0 16
0 0 94
0 1 63
0 2 76
0 3 17
1 0 59
1 1 63
1 2 38
1 3 89
2 0 37
2 1 19
2 2 35
2 3 19
3 0 42
3 1 53
3 2 32
3 3 8
2 22 23 0 16
0 0 18
0 1 10
0 2 57
0 3 59
1 0 87
1 1 5
1 2 12
1 3 88
2 0 31
2 1 34
2 2 59
2 3 43
3 0 44
3 1 7
3 2 92
3 3 66
2 22 26 0 16
0 0 14
0 1 2
0 2 46
0 3 64
1 0 10
1 1 5
1 2 9
1 3 71
2 0 47
2 1 55
2 2 5
2 3 26
3 0 82
3 1 10
3 2 7
3 3 37
2 22 27 0 16
0 0 61
0 1 66
0 2 53
0 3 85
1 0 53
1 1 96
1 2 71
1 3 15
2 0 24
2 1 15
2 2 10
2 3 32
3 0 33
3 1 32
3 2 61
3 3 80
2 23 37 0 16
0 0 46
0 1 15
0 2 9
0 3 13
1 0 85
1 1 54
1 2 41
1 3 2
2 0 25
2 1 14
2 2 18
2 3 61
3 0 35
3 1 1
3 2 85
3 3 74
2 23 28 0 16
0 0 40
0 1 34
0 2 99
0 3 28
1 0 34
1 1 70
1 2 36
1 3 68
2 0 27
2 1 46
2 2 86
2 3 10
3 0 79
3 1 81
3 2 70
3 3 85
2 24 32 0 16
0 0 19
0 1 66
0 2 30
0 3 57
1 0 59
1 1 20
1 2 37
1 3 56
2 0 79
2 1 4
2 2 45
2 3 35
3 0 16
3 1 27
3 2 18
3 3 78
2 24 35 0 16
0 0 82
0 1 98
0 2 25
0 3 22
1 0 45
1 1 69
1 2 35
1 3 61
2 0 38
2 1 8
2 2 54
2 3 38
3 0 30
3 1 74
3 2 45
3 3 6
2 24 42 0 16
0 0 45
0 1 8
0 2 75
0 3 94
1 0 24
1 1 1
1 2 2
1 3 48
2 0 51
2 1 65
2 2 55
2 3 63
3 0 48
3 1 91
3 2 71
3 3 1
2 24 47 0 16
0 0 59
0 1 96
0 2 65
0 3 15
1 0 70
1 1 85
1 2 61
1 3 43
2 0 58
2 1 98
2 2 10
2 3 29
3 0 23
3 1 14
3 2 69
3 3 70
2 25 40 0 16
0 0 63
0 1 90
0 2 71
0 3 81
1 0 39
1 1 1
1 2 80
1 3 78
2 0 24
2 1 83
2 2 25
2 3 98
3 0 73
3 1 38
3 2 6
3 3 65
2 25 34 0 16
0 0 59
0 1 72
0 2 6
0 3 64
1 0 2
1 1 80
1 2 70
1 3 19
2 0 73
2 1 79
2 2 54
2 3 13
3 0 88
3 1 79
3 2 45
3 3 38
2 26 43 0 16
0 0 72
0 1 22
0 2 58
0 3 89
1 0 76
1 1 10
1 2 32
1 3 95
2 0 59
2 1 76
2 2 60
2 3 16
3 0 59
3 1 82
3 2 55
3 3 64
2 27 35 0 16
0 0 50
0 1 66
0 2 36
0 3 93
1 0 85
1 1 15
1 2 80
1 3 99
2 0 57
2 1 73
2 2 22
2 3 99
3 0 12
3 1 12
3 2 35
3 3 42
2 28 33 0 16
0 0 27
0 1 74
0 2 48
0 3 86
1 0 92
1 1 56
1 2 17
1 3 20
2 0 93
2 1 48
2 2 57
2 3 34
3 0 41
3 1 43
3 2 15
3 3 57
2 28 40 0 16
0 0 30
0 1 95
0 2 70
0 3 11
1 0 69
1 1 14
1 2 29
1 3 81
2 0 29
2 1 90
2 2 77
2 3 6
3 0 71
3 1 45
3 2 82
3 3 57
2 28 46 0 16
0 0 21
0 1 93
0 2 9
0 3 4
1 0 86
1 1 1
1 2 57
1 3 65
2 0 3
2 1 37
2 2 70
2 3 68
3 0 92
3 1 7
3 2 25
3 3 30
2 28 29 0 16
0 0 4
0 1 73
0 2 55
0 3 78
1 0 83
1 1 32
1 2 73
1 3 8
2 0 96
2 1 12
2 2 15
2 3 87
3 0 12
3 1 25
3 2 96
3 3 86
2 28 37 0 16
0 0 28
0 1 44
0 2 24
0 3 9
1 0 57
1 1 49
1 2 75
1 3 88
2 0 31
2 1 38
2 2 27
2 3 52
3 0 13
3 1 91
3 2 5
3 3 22
2 29 37 0 16
0 0 96
0 1 49
0 2 44
0 3 12
1 0 83
1 1 64
1 2 79
1 3 14
2 0 57
2 1 58
2 2 98
2 3 1
3 0 71
3 1 53
3 2 41
3 3 94
2 29 45 0 16
0 0 69
0 1 52
0 2 69
0 3 51
1 0 54
1 1 36
1 2 19
1 3 99
2 0 50
2 1 25
2 2 97
2 3 23
3 0 99
3 1 59
3 2 74
3 3 98
2 29 35 0 16
0 0 63
0 1 25
0 2 59
0 3 44
1 0 88
1 1 53
1 2 20
1 3 13
2 0 63
2 1 3
2 2 36
2 3 60
3 0 98
3 1 75
3 2 78
3 3 27
2 29 36 0 16
0 0 49
0 1 98
0 2 4
0 3 35
1 0 69
1 1 72
1 2 28
1 3 75
2 0 42
2 1 20
2 2 85
2 3 54
3 0 29
3 1 64
3 2 55
3 3 53
2 30 41 0 16
0 0 28
0 1 85
0 2 70
0 3 66
1 0 64
1 1 12
1 2 52
1 3 40
2 0 14
2 1 11
2 2 17
2 3 33
3 0 52
3 1 79
3 2 98
3 3 81
2 30 44 0 16
0 0 20
0 1 81
0 2 42
0 3 91
1 0 43
1 1 49
1 2 36
1 3 3
2 0 77
2 1 78
2 2 62
2 3 79
3 0 67
3 1 21
3 2 54
3 3 40
2 30 48 0 16
0 0 26
0 1 15
0 2 41
0 3 87
1 0 53
1 1 16
1 2 60
1 3 96
2 0 56
2 1 67
2 2 99
2 3 68
3 0 97
3 1 83
3 2 95
3 3 79
2 30 46 0 16
0 0 50
0 1 97
0 2 77
0 3 68
1 0 73
1 1 28
1 2 60
1 3 4
2 0 46
2 1 27
2 2 85
2 3 90
3 0 2
3 1 88
3 2 17
3 3 50
2 31 34 0 16
0 0 39
0 1 55
0 2 40
0 3 57
1 0 33
1 1 70
1 2 48
1 3 1
2 0 15
2 1 15
2 2 16
2 3 73
3 0 63
3 1 43
3 2 92
3 3 78
2 31 37 0 16
0 0 68
0 1 14
0 2 59
0 3 90
1 0 24
1 1 5
1 2 65
1 3 68
2 0 34
2 1 74
2 2 34
2 3 83
3 0 41
3 1 69
3 2 100
3 3 36
2 31 44 0 16
0 0 47
0 1 68
0 2 96
0 3 39
1 0 12
1 1 44
1 2 76
1 3 69
2 0 8
2 1 37
2 2 92
2 3 16
3 0 12
3 1 88
3 2 84
3 3 18
2 32 39 0 16
0 0 60
0 1 85
0 2 24
0 3 78
1 0 68
1 1 84
1 2 2
1 3 70
2 0 55
2 1 92
2 2 19
2 3 65
3 0 68
3 1 63
3 2 88
3 3 19
2 32 43 0 16
0 0 30
0 1 49
0 2 92
0 3 30
1 0 24
1 1 46
1 2 38
1 3 54
2 0 56
2 1 72
2 2 5
2 3 1
3 0 13
3 1 75
3 2 68
3 3 37
2 32 44 0 16
0 0 2
0 1 13
0 2 38
0 3 72
1 0 88
1 1 37
1 2 85
1 3 20
2 0 64
2 1 83
2 2 34
2 3 35
3 0 20
3 1 46
3 2 22
3 3 13
2 33 43 0 16
0 0 61
0 1 13
0 2 59
0 3 92
1 0 46
1 1 4
1 2 75
1 3 6
2 0 78
2 1 27
2 2 25
2 3 87
3 0 56
3 1 50
3 2 1
3 3 92
2 33 39 0 16
0 0 21
0 1 59
0 2 3
0 3 73
1 0 63
1 1 94
1 2 33
1 3 73
2 0 85
2 1 99
2 2 42
2 3 78
3 0 89
3 1 59
3 2 49
3 3 81
2 33 41 0 16
0 0 22
0 1 74
0 2 55
0 3 99
1 0 47
1 1 19
1 2 41
1 3 1
2 0 85
2 1 40
2 2 19
2 3 6
3 0 48
3 1 23
3 2 80
3 3 58
2 33 46 0 16
0 0 98
0 1 60
0 2 53
0 3 44
1 0 88
1 1 79
1 2 16
1 3 15
2 0 69
2 1 82
2 2 49
2 3 79
3 0 83
3 1 43
3 2 85
3 3 50
2 33 44 0 16
0 0 18
0 1 53
0 2 42
0 3 4
1 0 5
1 1 94
1 2 12
1 3 56
2 0 71
2 1 48
2 2 90
2 3 91
3 0 78
3 1 89
3 2 60
3 3 93
2 34 36 0 16
0 0 21
0 1 28
0 2 1
0 3 92
1 0 37
1 1 16
1 2 56
1 3 77
2 0 39
2 1 58
2 2 55
2 3 79
3 0 27
3 1 42
3 2 55
3 3 19
2 34 41 0 16
0 0 47
0 1 26
0 2 63
0 3 20
1 0 66
1 1 67
1 2 36
1 3 88
2 0 21
2 1 52
2 2 48
2 3 42
3 0 56
3 1 81
3 2 11
3 3 93
2 34 45 0 16
0 0 97
0 1 26
0 2 46
0 3 98
1 0 4
1 1 34
1 2 61
1 3 38
2 0 42
2 1 91
2 2 99
2 3 55
3 0 95
3 1 75
3 2 38
3 3 82
2 35 42 0 16
0 0 83
0 1 43
0 2 91
0 3 41
1 0 40
1 1 82
1 2 2
1 3 16
2 0 20
2 1 17
2 2 15
2 3 5
3 0 98
3 1 56
3 2 42
3 3 78
2 35 47 0 16
0 0 86
0 1 29
0 2 81
0 3 52
1 0 36
1 1 33
1 2 4
1 3 42
2 0 90
2 1 17
2 2 78
2 3 6
3 0 57
3 1 8
3 2 9
3 3 98
2 36 37 0 16
0 0 95
0 1 32
0 2 1
0 3 28
1 0 32
1 1 67
1 2 38
1 3 85
2 0 47
2 1 18
2 2 100
2 3 22
3 0 67
3 1 99
3 2 39
3 3 11
2 36 38 0 16
0 0 48
0 1 71
0 2 67
0 3 98
1 0 1
1 1 77
1 2 95
1 3 23
2 0 87
2 1 78
2 2 81
2 3 26
3 0 12
3 1 69
3 2 6
3 3 53
2 36 42 0 16
0 0 64
0 1 18
0 2 6
0 3 79
1 0 24
1 1 73
1 2 47
1 3 54
2 0 86
2 1 4
2 2 54
2 3 73
3 0 81
3 1 59
3 2 59
3 3 93
2 36 47 0 16
0 0 1
0 1 71
0 2 97
0 3 35
1 0 2
1 1 74
1 2 43
1 3 79
2 0 42
2 1 97
2 2 90
2 3 89
3 0 100
3 1 66
3 2 24
3 3 78
2 39 45 0 16
0 0 96
0 1 45
0 2 51
0 3 22
1 0 53
1 1 30
1 2 40
1 3 43
2 0 4
2 1 45
2 2 79
2 3 51
3 0 77
3 1 59
3 2 44
3 3 14
2 40 48 0 16
0 0 41
0 1 50
0 2 35
0 3 77
1 0 14
1 1 78
1 2 98
1 3 49
2 0 31
2 1 67
2 2 94
2 3 74
3 0 27
3 1 76
3 2 7
3 3 83
2 40 41 0 16
0 0 28
0 1 68
0 2 74
0 3 57
1 0 12
1 1 73
1 2 61
1 3 60
2 0 62
2 1 68
2 2 96
2 3 74
3 0 98
3 1 88
3 2 79
3 3 67
2 40 47 0 16
0 0 80
0 1 58
0 2 27
0 3 68
1 0 44
1 1 93
1 2 59
1 3 11
2 0 87
2 1 37
2 2 88
2 3 15
3 0 67
3 1 9
3 2 55
3 3 44
2 41 43 0 16
0 0 91
0 1 91
0 2 27
0 3 73
1 0 21
1 1 91
1 2 33
1 3 64
2 0 4
2 1 53
2 2 73
2 3 92
3 0 16
3 1 31
3 2 64
3 3 100
2 41 44 0 16
0 0 72
0 1 3
0 2 8
0 3 100
1 0 62
1 1 99
1 2 19
1 3 67
2 0 16
2 1 73
2 2 52
2 3 62
3 0 73
3 1 32
3 2 60
3 3 63
2 41 45 0 16
0 0 26
0 1 98
0 2 29
0 3 46
1 0 85
1 1 38
1 2 38
1 3 32
2 0 32
2 1 40
2 2 10
2 3 10
3 0 13
3 1 99
3 2 70
3 3 91
2 41 47 0 16
0 0 76
0 1 20
0 2 53
0 3 45
1 0 51
1 1 84
1 2 26
1 3 3
2 0 31
2 1 8
2 2 8
2 3 33
3 0 72
3 1 18
3 2 2
3 3 70
2 43 45 0 16
0 0 63
0 1 8
0 2 33
0 3 59
1 0 93
1 1 32
1 2 8
1 3 41
2 0 80
2 1 88
2 2 5
2 3 94
3 0 77
3 1 57
3 2 34
3 3 90
2 43 46 0 16
0 0 62
0 1 77
0 2 79
0 3 81
1 0 60
1 1 30
1 2 22
1 3 54
2 0 48
2 1 70
2 2 49
2 3 76
3 0 46
3 1 16
3 2 35
3 3 27
2 44 47 0 16
0 0 16
0 1 87
0 2 4
0 3 41
1 0 89
1 1 27
1 2 49
1 3 63
2 0 76
2 1 76
2 2 77
2 3 18
3 0 43
3 1 98
3 2 87
3 3 47
2 47 48 0 16
0 0 55
0 1 86
0 2 98
0 3 89
1 0 96
1 1 55
1 2 30
1 3 99
2 0 14
2 1 16
2 2 85
2 3 10
3 0 54
3 1 94
3 2 91
3 3 6
